20	5
0	7	5	19	3	6	4	1	2
1	3	9	11	15
2	1	10
3	1	9
4	1	15
5	1	16
6	1	12
7	0
8	2	17	7
9	3	10	16	20
10	1	12
11	1	7
12	1	13
13	1	14
14	1	21
15	1	21
16	1	21
17	1	21
18	1	21
19	1	21
20	1	21
21	0
0	0	0	0	0	0	0
1	1	0	5	5	4	0
2	4	0	0	0	4	2
3	2	0	0	0	4	0
4	10	0	4	0	0	1
5	8	0	0	0	2	5
6	3	0	0	0	0	1
7	1	4	1	0	4	3
8	6	5	1	0	5	4
9	4	0	0	3	0	0
10	8	5	0	0	1	0
11	4	0	0	0	4	5
12	4	2	4	5	5	4
13	10	4	4	2	0	0
14	5	5	2	0	3	0
15	10	3	5	0	0	4
16	9	4	0	0	5	0
17	5	3	0	2	4	0
18	1	3	1	0	4	0
19	6	0	0	5	0	5
20	8	2	0	5	0	0
21	0	0	0	0	0	0
11	7	8	10	11
